CapLotSizing_PM/src/Instancias/NCLSLT/6i6p4m/NBB00.OUT
 CG ITER, OVMR, OVMRUB =           1   12809.2744141    6558.3994141
 CG ITER, OVMR, OVMRUB =           2   12809.2744141    6558.3994141
 CG ITER, OVMR, OVMRUB =           3   12809.2744141    6558.3994141
 CG ITER, OVMR, OVMRUB =           4   12809.2744141    6558.3994141
 CG ITER, OVMR, OVMRUB =           5   12809.2744141    6558.3994141
 CG ITER, OVMR, OVMRUB =           6   12809.2744141    6558.3994141
 CG ITER, OVMR, OVMRUB =           7   12809.2744141    6558.3994141
 CG ITER, OVMR, OVMRUB =           8   12809.2744141    6558.3994141
 CG ITER, OVMR, OVMRUB =           9   12809.2744141    6558.3994141
 CG ITER, OVMR, OVMRUB =          10   12809.2744141    6558.3994141
OVLB =   12809.2744141 OVLUB =    6558.3994141 TIME =       0.1400000
